NAME : X-n25-k9
CAPACITY :690
NODE_COORD_SECTION
1   134   267
2   412   185
3   278   458
4   360   323
5   245   125
6   392   285
7   120   419
8   275   78
9   450   230
10  66    354
11  300   190
12  400   332
13  151   450
14  215   60
15  100   283
16  250   470
17  190   290
18  372   128
19  420   239
20  88    361
21  190   80
22  309   320
23  453   11
24  287   420
25  55    500
DEMAND_SECTION	
1   0
2   45
3   33
4   59
5   22
6   20
7   15
8   25
9   35
10  19
11  6
12  31
13  46
14  15
15  20
16  17
17  25
18  38
19  36
20  5
21  15
22  27
23  22
24  18
25  86
DEPOT_SECTION		
	1	
	-1	
EOF	
	
	
